17	4
18	11	16	23	
0	0	0	0	0	3	2	3	4	
6	7	8	0	0	3	7	9	17	
5	5	0	0	0	1	17	
9	3	0	10	0	1	5	
1	6	0	10	10	3	6	8	17	
175	0	0	10	6	3	10	11	12	
175	8	6	0	4	3	14	16	17	
75	6	0	5	5	1	13	
75	1	2	5	9	2	15	17	
175	4	0	10	0	1	17	
50	2	0	0	0	1	17	
75	8	1	5	7	2	17	17	
3	0	4	8	0	1	14	
10	0	4	0	0	2	17	17	
3	0	0	4	10	1	17	
4	0	8	0	0	3	17	17	17	
0	0	0	0	0	0	
